problems/csplib-prob015/SchursLemma-models/noch/O2/lingeling/model_1_4-7-15-solution000001.eprime-solution
language ESSENCE' 1.0

letting boxes_PartitionOccurrence_FirstIndex be [1, 3, 4, 5, 7, 10, 14; int(1..7)]
letting boxes_PartitionOccurrence_NumParts be 7
letting boxes_PartitionOccurrence_PartSizes be [3, 4, 4, 1, 1, 1, 1; int(1..7)]
letting boxes_PartitionOccurrence_WhichPart be [1, 1, 2, 3, 4, 2, 5, 3, 3, 6, 3, 2, 2, 7, 1; int(1..15)]
