problems/csplib-prob015/SchursLemma-models/noch/O2/lingeling/model_1_4-7-15-solution000001.solution
language Essence 1.3

letting boxes be partition({1, 2, 15}, {3, 6, 12, 13}, {4, 8, 9, 11}, {5}, {7}, {10}, {14})
